*SENSE:Minimize
NAME          MODEL
ROWS
 N  OBJ
 L  C0000000
 G  C0000001
 G  C0000002
 G  C0000003
 G  C0000004
COLUMNS
    X0000000  C0000000   4.000000000000e-02
    X0000000  C0000001  -2.100000000000e-01
    X0000000  C0000002   3.294247004583e+00
    X0000000  C0000003   4.656000000000e-02
    X0000000  C0000004   3.344000000000e-02
    X0000000  OBJ        2.800000000000e-01
    X0000001  C0000000   1.760000000000e-01
    X0000001  C0000001  -2.100000000000e-01
    X0000001  C0000002   2.767781072573e+00
    X0000001  C0000003   2.060604000000e-01
    X0000001  C0000004   2.703960000000e-02
    X0000001  OBJ        2.100000000000e-01
    X0000002  C0000000   4.670000000000e-01
    X0000002  C0000001   1.680000000000e-01
    X0000002  C0000002   2.309448213499e+00
    X0000002  C0000003   1.500225000000e-01
    X0000002  C0000004   5.747750000000e-02
    X0000002  OBJ        1.700000000000e-01
    X0000003  C0000000   4.800000000000e-02
    X0000003  C0000001  -2.100000000000e-01
    X0000003  C0000002   3.803506535842e+00
    X0000003  C0000003   2.665332000000e-01
    X0000003  C0000004   1.336668000000e-01
    X0000003  OBJ        3.900000000000e-01
    X0000004  C0000000   5.620000000000e-01
    X0000004  C0000001   2.380000000000e-01
    X0000004  C0000002   2.156643463484e+00
    X0000004  C0000003   8.213150000000e-02
    X0000004  C0000004   3.776850000000e-02
    X0000004  OBJ        1.500000000000e-01
RHS
    RHS       C0000000   5.249923901152e+00
    RHS       C0000001   0.000000000000e+00
    RHS       C0000002   5.901920538944e+01
    RHS       C0000003   1.609980414703e+00
    RHS       C0000004   1.536788343568e+00
BOUNDS
 UP BND       X0000000   1.000000000000e+02
 UP BND       X0000001   1.000000000000e+02
 UP BND       X0000002   1.000000000000e+02
 UP BND       X0000003   1.000000000000e+02
 UP BND       X0000004   1.000000000000e+02
ENDATA
